RT is False
Default write of storage_offers_DA.csv just to have a file (but constraint should be inactive)
Reading model...
...model read.
creating competitive generators file...
...competitive generators recorded.
Loading data...
.. day-ahead data with real-time VRE data read.
Compiling instance...
...instance created.
Creating Offer Mitigation (model will solve as dispatch if TRUE)...
Solving...

Welcome to IBM(R) ILOG(R) CPLEX(R) Interactive Optimizer 12.9.0.0
  with Simplex, Mixed Integer & Barrier Optimizers
5725-A06 5725-A29 5724-Y48 5724-Y49 5724-Y54 5724-Y55 5655-Y21
Copyright IBM Corp. 1988, 2019.  All Rights Reserved.

Type 'help' for a list of available commands.
Type 'help' followed by a command name for more
information on commands.

CPLEX> Logfile 'cplex.log' closed.
Logfile 'C:\Users\llavin\Desktop\test919\logs\tmpwmymz2mn.cplex.log' open.
CPLEX> New value for parallel optimization mode: -1
CPLEX> New value for mixed integer optimality gap tolerance: 0.01
CPLEX> New value for integrality tolerance: 1e-09
CPLEX> New value for feasibility tolerance: 0.01
CPLEX> New value for deterministic time limit in ticks: 75000
CPLEX> Problem 'C:\Users\llavin\Desktop\test919\logs\tmp_3ejxpgn.pyomo.lp' read.
Read time = 0.05 sec. (3.04 ticks)
CPLEX> Problem name         : C:\Users\llavin\Desktop\test919\logs\tmp_3ejxpgn.pyomo.lp
Objective sense      : Minimize
Variables            :   26081  [Nneg: 1,  Box: 21616,  Free: 4464]
Objective nonzeros   :    2496
Linear constraints   :   27515  [Less: 14006,  Greater: 4416,  Equal: 9093]
  Nonzeros           :   89267
  RHS nonzeros       :   12271

Variables            : Min LB: -5000.000        Max UB: 1000000.       
Objective nonzeros   : Min   : 15.73158         Max   : 124.0997       
Linear constraints   :
  Nonzeros           : Min   : 0.8500000        Max   : 3000.000       
  RHS nonzeros       : Min   : 0.3583333        Max   : 5000.000       
CPLEX> CPXPARAM_Parallel                                -1
CPXPARAM_Simplex_Tolerances_Feasibility          0.01
CPXPARAM_DetTimeLimit                            75000
CPXPARAM_MIP_Tolerances_MIPGap                   0.01
CPXPARAM_MIP_Tolerances_Integrality              1.0000000000000001e-09
Parallel mode: opportunistic, using up to 32 threads for concurrent optimization.
Tried aggregator 1 time.
LP Presolve eliminated 21353 rows and 15463 columns.
Aggregator did 773 substitutions.
Reduced LP has 5389 rows, 9845 columns, and 31806 nonzeros.
Presolve time = 0.06 sec. (30.45 ticks)
Symmetry aggregator did 5563 additional substitutions.

Iteration log . . .
Iteration:     1   Dual objective     =             0.000000
Perturbation started.
Iteration:   101   Dual objective     =             0.000000
Iteration:   335   Dual objective     =             1.229895
Iteration:   593   Dual objective     =             1.753815
Iteration:   851   Dual objective     =             1.888675
Iteration:  1065   Dual objective     =             2.002941
Iteration:  1335   Dual objective     =             2.050786
Iteration:  1583   Dual objective     =             2.080426
Iteration:  1804   Dual objective     =          2374.686254
Iteration:  1992   Dual objective     =         74459.244055
Iteration:  2191   Dual objective     =         88606.979316
Iteration:  2398   Dual objective     =         91755.501567
Iteration:  2622   Dual objective     =         97601.323662
Iteration:  2968   Dual objective     =         99135.530683
Removing perturbation.
Dual superbasis not built.
Using devex.

Primal simplex solved model.


Primal simplex - Optimal:  Objective =  9.9302582736e+04
Solution time =    0.16 sec.  Iterations = 1755 (1023)
Deterministic time = 80.62 ticks  (516.79 ticks/sec)

CPLEX> Solution written to file 'C:\Users\llavin\Desktop\test919\logs\tmpnk2qk8_q.cplex.sol'.
CPLEX> Exporting results... 
...storage offer mitigation file created
Converting model to MPEC...
...converted
NOTE: initial MIP solve with only storage competitive to get feasible solution
Solving...

Welcome to IBM(R) ILOG(R) CPLEX(R) Interactive Optimizer 12.9.0.0
  with Simplex, Mixed Integer & Barrier Optimizers
5725-A06 5725-A29 5724-Y48 5724-Y49 5724-Y54 5724-Y55 5655-Y21
Copyright IBM Corp. 1988, 2019.  All Rights Reserved.

Type 'help' for a list of available commands.
Type 'help' followed by a command name for more
information on commands.

CPLEX> Logfile 'cplex.log' closed.
Logfile 'C:\Users\llavin\Desktop\test919\logs\tmp2b84ityu.cplex.log' open.
CPLEX> New value for parallel optimization mode: -1
CPLEX> New value for mixed integer optimality gap tolerance: 0.01
CPLEX> New value for integrality tolerance: 1e-09
CPLEX> New value for feasibility tolerance: 0.01
CPLEX> New value for deterministic time limit in ticks: 75000
CPLEX> Problem 'C:\Users\llavin\Desktop\test919\logs\tmp9qus5phd.pyomo.lp' read.
Read time = 0.23 sec. (14.78 ticks)
CPLEX> Problem name         : C:\Users\llavin\Desktop\test919\logs\tmp9qus5phd.pyomo.lp
Objective sense      : Maximize
Variables            :   53805  [Nneg: 1,  Box: 22000,  Free: 4464,
                                 Binary: 27340]
Objective nonzeros   :    8980
Linear constraints   :  123205  [Less: 41346,  Greater: 59096,  Equal: 22763]
  Nonzeros           :  291801
  RHS nonzeros       :   67431

Variables            : Min LB: -5000.000        Max UB: 1000000.       
Objective nonzeros   : Min   : 0.3583333        Max   : 783.1917       
Linear constraints   :
  Nonzeros           : Min   : 0.3583333        Max   : 1000000.       
  RHS nonzeros       : Min   : 0.3583333        Max   : 1000000.       
CPLEX> CPXPARAM_Parallel                                -1
CPXPARAM_Simplex_Tolerances_Feasibility          0.01
CPXPARAM_DetTimeLimit                            75000
CPXPARAM_MIP_Tolerances_MIPGap                   0.01
CPXPARAM_MIP_Tolerances_Integrality              1.0000000000000001e-09
Tried aggregator 3 times.
MIP Presolve eliminated 88626 rows and 18926 columns.
MIP Presolve added 3379 rows and 0 columns.
MIP Presolve modified 24879 coefficients.
Aggregator did 12980 substitutions.
Reduced MIP has 24978 rows, 21343 columns, and 71274 nonzeros.
Reduced MIP has 8420 binaries, 0 generals, 0 SOSs, and 0 indicators.
Presolve time = 0.30 sec. (173.61 ticks)
Probing fixed 389 vars, tightened 2815 bounds.
Probing time = 1.19 sec. (877.37 ticks)
Tried aggregator 2 times.
MIP Presolve eliminated 879 rows and 784 columns.
MIP Presolve modified 2192 coefficients.
Aggregator did 44 substitutions.
Reduced MIP has 24055 rows, 20515 columns, and 68590 nonzeros.
Reduced MIP has 8029 binaries, 0 generals, 0 SOSs, and 0 indicators.
Presolve time = 0.11 sec. (69.05 ticks)
Probing time = 0.05 sec. (15.83 ticks)
Clique table members: 6378.
MIP emphasis: balance optimality and feasibility.
MIP search method: dynamic search.
Parallel mode: opportunistic, using up to 32 threads.
Root relaxation solution time = 0.45 sec. (311.06 ticks)

        Nodes                                         Cuts/
   Node  Left     Objective  IInf  Best Integer    Best Bound    ItCnt     Gap

      0     0     7839.5640  1697                   7839.5640     6524         
      0     0     7839.2633    25                    Cuts: 26     6534         
      0     0     7838.8850    23                    Cuts: 22     6543         
      0     0     7838.6650    23                    Cuts: 19     6548         
      0     2     7838.6535    28                    Cuts: 10     6548         
Elapsed time = 9.53 sec. (5684.82 ticks, tree = 0.02 MB, solutions = 0)
    541   338     7759.3436    14                   7831.7554    10184         
   1008   774     3489.1613    12                   7831.7554    16467         
*  1410   853      integral     0     7743.2818     7831.7554    17844    1.14%
   1628  1197     7716.0635     2     7743.2818     7831.7554    20467    1.14%

Cover cuts applied:  1
Implied bound cuts applied:  4
Flow cuts applied:  23
Mixed integer rounding cuts applied:  4
Gomory fractional cuts applied:  4

Root node processing (before b&c):
  Real time             =    8.09 sec. (5654.72 ticks)
Parallel b&c, 32 threads:
  Real time             =    5.47 sec. (925.71 ticks)
  Sync time (average)   =    1.16 sec.
  Wait time (average)   =    0.00 sec.
                          ------------
Total (root+branch&cut) =   13.56 sec. (6580.43 ticks)

Solution pool: 5 solutions saved.

MIP - Integer optimal, tolerance (0.01/1e-06):  Objective =  7.7432818337e+03
Current MIP best bound =  7.8133095434e+03 (gap = 70.0277, 0.90%)
Solution time =   13.59 sec.  Iterations = 22990  Nodes = 1728 (465)
Deterministic time = 6580.58 ticks  (484.08 ticks/sec)

CPLEX> Incumbent solution written to file 'C:\Users\llavin\Desktop\test919\logs\tmp53tl7bue.cplex.sol'.
CPLEX> NOTE: no warmstart specified for MIP iteration, default behavior is true
NOTE: resolving with all competitive generators using storage-only solution to warmstart
Solving...

Welcome to IBM(R) ILOG(R) CPLEX(R) Interactive Optimizer 12.9.0.0
  with Simplex, Mixed Integer & Barrier Optimizers
5725-A06 5725-A29 5724-Y48 5724-Y49 5724-Y54 5724-Y55 5655-Y21
Copyright IBM Corp. 1988, 2019.  All Rights Reserved.

Type 'help' for a list of available commands.
Type 'help' followed by a command name for more
information on commands.

CPLEX> Logfile 'cplex.log' closed.
Logfile 'C:\Users\llavin\Desktop\test919\logs\tmp1ed427x7.cplex.log' open.
CPLEX> New value for parallel optimization mode: -1
CPLEX> New value for mixed integer optimality gap tolerance: 0.01
CPLEX> New value for integrality tolerance: 1e-09
CPLEX> New value for feasibility tolerance: 0.01
CPLEX> New value for deterministic time limit in ticks: 75000
CPLEX> Problem 'C:\Users\llavin\Desktop\test919\logs\tmpqh6zf1iv.pyomo.lp' read.
Read time = 0.23 sec. (14.81 ticks)
CPLEX> MIP start file 'C:\Users\llavin\Desktop\test919\logs\tmpt9o5g4pw.cplex.mst' read.
CPLEX> Problem name         : C:\Users\llavin\Desktop\test919\logs\tmpqh6zf1iv.pyomo.lp
Objective sense      : Maximize
Variables            :   54525  [Nneg: 1,  Box: 22720,  Free: 4464,
                                 Binary: 27340]
Objective nonzeros   :    9676
Linear constraints   :  123205  [Less: 41346,  Greater: 59096,  Equal: 22763]
  Nonzeros           :  291801
  RHS nonzeros       :   67431

Variables            : Min LB: -5000.000        Max UB: 1000000.       
Objective nonzeros   : Min   : 0.3583333        Max   : 783.1917       
Linear constraints   :
  Nonzeros           : Min   : 0.3583333        Max   : 1000000.       
  RHS nonzeros       : Min   : 0.3583333        Max   : 1000000.       
CPLEX> CPXPARAM_Parallel                                -1
CPXPARAM_Simplex_Tolerances_Feasibility          0.01
CPXPARAM_DetTimeLimit                            75000
CPXPARAM_MIP_Tolerances_MIPGap                   0.01
CPXPARAM_MIP_Tolerances_Integrality              1.0000000000000001e-09
Warning:  No solution found from 1 MIP starts.
Retaining values of one MIP start for possible repair.
Tried aggregator 3 times.
MIP Presolve eliminated 88626 rows and 19646 columns.
MIP Presolve added 3379 rows and 0 columns.
MIP Presolve modified 24879 coefficients.
Aggregator did 12980 substitutions.
Reduced MIP has 24978 rows, 21343 columns, and 71274 nonzeros.
Reduced MIP has 8420 binaries, 0 generals, 0 SOSs, and 0 indicators.
Presolve time = 0.30 sec. (173.97 ticks)
Probing fixed 389 vars, tightened 2815 bounds.
Probing time = 1.17 sec. (877.37 ticks)
Tried aggregator 2 times.
MIP Presolve eliminated 879 rows and 784 columns.
MIP Presolve modified 2192 coefficients.
Aggregator did 44 substitutions.
Reduced MIP has 24055 rows, 20515 columns, and 68590 nonzeros.
Reduced MIP has 8029 binaries, 0 generals, 0 SOSs, and 0 indicators.
Presolve time = 0.11 sec. (69.05 ticks)
Probing time = 0.03 sec. (15.83 ticks)
Clique table members: 6378.
MIP emphasis: balance optimality and feasibility.
MIP search method: dynamic search.
Parallel mode: opportunistic, using up to 32 threads.
Root relaxation solution time = 0.42 sec. (308.45 ticks)

        Nodes                                         Cuts/
   Node  Left     Objective  IInf  Best Integer    Best Bound    ItCnt     Gap

      0     0   126682.0217  1878                 126682.0217     7243         
      0     0   125061.7668   687                   Cuts: 633     7584         
      0     0   124879.8905   572                   Cuts: 304     7722         
      0     0   124835.4421   551                   Cuts: 144     7799         
      0     0   124814.8448   519                    Cuts: 78     7836         
      0     0   124814.8448   506                    Cuts: 69     7860         
      0     0   124814.8448   492                    Cuts: 27     7873         
      0     0   124814.8448   492                    Cuts: 24     7879         
      0     0   124814.8448   488                    Cuts: 17     7883         
Repair heuristic found nothing.
      0    25   107698.0257   466                    Cuts: 46     8641         
Elapsed time = 11.11 sec. (6405.46 ticks, tree = 0.02 MB, solutions = 0)
    461    64   103603.8979   363                 120417.0399    10759         
    835   475    99110.6629   410                 120417.0399    16339         
   1343   936   105088.1423   374                 120417.0399    23712         
   1851  1399    72135.7285   337                 120417.0399    32093         
   2345  1743    80676.3344   398                 120417.0399    36541         
   2906  2535    85806.6708   331                 120417.0399    45520         
   3557  2996    86843.3418   349                 120417.0399    48268         
   4288  2911    83706.1944   294                 120417.0399    47194         
   5178  3413    85777.7813   296                 120417.0399    49832         
   9907  7245    84491.1792   230                 120417.0399    54111         
Elapsed time = 28.63 sec. (9508.98 ticks, tree = 144.94 MB, solutions = 0)
* 11743  9449      integral     0    68938.5001   120417.0399    55698   74.67%
* 12239  9925      integral     0    80823.0806   120417.0399    56516   48.99%
  14035  6291        cutoff          84307.5743   112643.2461    75633   33.61%
  15229   368    89293.7626   116    84307.5743   111905.9580    80823   32.74%
  16170  1318    91208.7363   124    84307.5743   111905.9580    93950   32.74%
  18488  2477    87555.2293   161    84307.5743   109351.7043   108514   29.71%
  21073  3591    88856.0860   160    84307.5743   100159.1180   122107   18.80%
  23557  4290    86651.7787    87    84307.5743   100159.1180   130102   18.80%
  25877  7572    85037.9559   104    87960.4161   100132.6646   163231   13.84%
  28189  5637    92998.2201   124    87960.4161    97036.3054   173251   10.32%
  30308  7155    95709.0838   188    87960.4161    97036.3054   197406   10.32%
Elapsed time = 94.52 sec. (26634.09 ticks, tree = 55.16 MB, solutions = 12)
  31665  8155    93075.7815   155    87960.4161    96238.7451   211560    9.41%
  32979  8158    93201.0799   117    87960.4161    96238.7451   211729    9.41%
  35017  9352    90085.4008   115    87960.4161    96238.7451   227877    9.41%
  37201 11970    88769.1662   169    87960.4161    95920.1150   272736    9.05%
  39249 11715        cutoff          87960.4161    95878.4968   269136    9.00%
  41389 12563    88293.0170   148    87960.4161    95850.6205   281677    8.97%
  43659 14173    88064.9530    87    88342.2106    95782.0720   316268    8.42%
  45998 13312    94018.6962   171    88963.4870    95451.0195   365866    7.29%
  48573 13685    89971.5202   107    88963.4870    95311.6984   382771    7.14%
  51105 14866    89416.4843    98    88963.4870    95202.0222   418634    7.01%
Elapsed time = 151.66 sec. (36176.36 ticks, tree = 122.49 MB, solutions = 14)
  53573 16502    94167.7161   135    88963.4870    95202.0222   454270    7.01%
  55448 16369    89368.7791    98    88963.4870    94961.1227   451151    6.74%
  56748 15744        cutoff          88963.4870    94847.7479   439526    6.61%
  57656 16402    89134.5388    96    88963.4870    94834.1554   451297    6.60%
  58848 18382    89905.7864   132    88963.4870    94745.4380   502515    6.50%
  60840 18616    91687.5828   119    88963.4870    94502.4465   514344    6.23%
  63298 18846    93941.1047   112    88963.4870    94419.1504   522924    6.13%
  65868 19316    91905.9640   121    88963.4870    94419.1504   533008    6.13%
  68423 19361    91891.8156   114    88963.4870    94268.2961   534424    5.96%
  70817 22212    89121.4903    85    88963.4870    94251.4889   594128    5.94%
Elapsed time = 199.45 sec. (45718.26 ticks, tree = 196.62 MB, solutions = 14)
  73124 23433        cutoff          88963.4870    94085.7114   618201    5.76%
  75521 21436        cutoff          88963.4870    94059.1315   578292    5.73%
  78015 23622    89106.2163    95    88963.4870    94049.3731   622228    5.72%
  80611 25687    91963.0213   113    88963.4870    93961.9915   666251    5.62%
  83367 27892        cutoff          88963.4870    93809.0299   708822    5.45%
  86307 27131    91346.5252   145    88963.4870    93694.5000   696628    5.32%
  89055 29867    89639.6290   101    88963.4870    93612.4415   733489    5.23%
  91789 27113    90303.4424   112    88963.4870    93612.4415   696568    5.23%
  94591 32802    90174.2733    99    88963.4870    93578.8752   772040    5.19%
  97337 31490    89234.3478    93    88963.4870    93538.4700   753413    5.14%
Elapsed time = 258.23 sec. (55258.20 ticks, tree = 290.22 MB, solutions = 14)
  99894 31925    91028.3743   105    88963.4870    93458.2762   760146    5.05%
 102337 36430    88969.8796    92    88963.4870    93411.6960   818359    5.00%
 104469 37103    89512.4727    94    88963.4870    93283.1648   825880    4.86%
 106224 39086    89103.5491    88    88963.4870    93265.9877   847206    4.84%
 107590 37243    89403.5129    89    88963.4870    93207.1795   827386    4.77%
 108773 38662    89129.7032    90    88963.4870    93168.7501   843171    4.73%
 109962 42869    89214.0707    92    88963.4870    93168.7501   887248    4.73%
*111479 43674      integral     0    89336.9242    93129.2545   895257    4.24%
 113628 41830    90982.0021   103    89568.2174    93107.3536   875906    3.95%
 116126 42093    92742.3175   120    89568.2174    93107.3536   879627    3.95%
Elapsed time = 303.17 sec. (64642.78 ticks, tree = 403.94 MB, solutions = 20)
 118904 37912    89398.9193    87    89568.2174    93107.3536   924172    3.95%
 121857 43299        cutoff          89568.2174    93107.3536   891818    3.95%
 124823 39257    90093.9859    98    89680.4224    93009.5561   940058    3.71%
 127758 38774    91263.6962   117    89680.4224    93004.1141   935470    3.71%
 130607 35560        cutoff          89680.4224    93004.1141   980060    3.71%
 133454 38878        cutoff          89680.4224    93004.1141   936742    3.71%
 136028 35303    90091.8554    99    89680.4224    93004.1141   977310    3.71%
 138251 35898    89625.2783    96    89680.4224    93004.1141   959069    3.71%
 139927 37184        cutoff          89680.4224    93004.1141  1007816    3.71%
 141048 36484    92443.6382    96    89680.4224    93004.1141   995990    3.71%
Elapsed time = 335.20 sec. (74182.63 ticks, tree = 319.31 MB, solutions = 23)
*141464 37613      integral     0    89707.9108    93004.1141  1013288    3.67%

GUB cover cuts applied:  3
Clique cuts applied:  27
Cover cuts applied:  36
Implied bound cuts applied:  64
Flow cuts applied:  1720
Mixed integer rounding cuts applied:  1963
Gomory fractional cuts applied:  144

Root node processing (before b&c):
  Real time             =    9.38 sec. (6378.30 ticks)
Parallel b&c, 32 threads:
  Real time             =  326.83 sec. (68660.40 ticks)
  Sync time (average)   =    2.08 sec.
  Wait time (average)   =    0.32 sec.
                          ------------
Total (root+branch&cut) =  336.20 sec. (75038.70 ticks)

Solution pool: 23 solutions saved.

MIP - Deterministic time limit exceeded, integer feasible:  Objective =  8.9707910829e+04
Current MIP best bound =  9.2850860339e+04 (gap = 3142.95, 3.50%)
Solution time =  336.23 sec.  Iterations = 1104677  Nodes = 141487 (42913)
Deterministic time = 75038.85 ticks  (223.17 ticks/sec)

CPLEX> Incumbent solution written to file 'C:\Users\llavin\Desktop\test919\logs\tmpxrdjq_z0.cplex.sol'.
CPLEX> Exporting results... 
